\ENCODING=ISO-8859-1
\Problem name: BnB

Minimize
 obj1: 29.95 x("1")("2") + 32.78 x("1")("3") + 19.1 x("1")("4")
       + 111.83 x("1")("5") + 7.32 x("1")("6") + 25.74 x("2")("1")
       + 64.41 x("2")("3") + 44.29 x("2")("4") + 37.48 x("2")("5")
       + 73.63 x("2")("6") + 54.53 x("3")("1") + 31.89 x("3")("2")
       + 138.55 x("3")("4") + 22.35 x("3")("5") + 106.89 x("3")("6")
       + 136.68 x("4")("1") + 93.66 x("4")("2") + 72.41 x("4")("3")
       + 122.87 x("4")("5") + 55.38 x("4")("6") + 57 x("5")("1")
       + 70.25 x("5")("2") + 17.36 x("5")("3") + 95.13 x("5")("4")
       + 158.6 x("5")("6") + 49.83 x("6")("1") + 104.68 x("6")("2")
       + 2.51 x("6")("3") + 65.9 x("6")("4") + 101.76 x("6")("5")
Subject To
 c1:  x("1")("1") + x("1")("2") + x("1")("3") + x("1")("4") + x("1")("5")
      + x("1")("6")  = 1
 c2:  x("2")("1") + x("2")("2") + x("2")("3") + x("2")("4") + x("2")("5")
      + x("2")("6")  = 1
 c3:  x("3")("1") + x("3")("2") + x("3")("3") + x("3")("4") + x("3")("5")
      + x("3")("6")  = 1
 c4:  x("4")("1") + x("4")("2") + x("4")("3") + x("4")("4") + x("4")("5")
      + x("4")("6")  = 1
 c5:  x("5")("1") + x("5")("2") + x("5")("3") + x("5")("4") + x("5")("5")
      + x("5")("6")  = 1
 c6:  x("6")("1") + x("6")("2") + x("6")("3") + x("6")("4") + x("6")("5")
      + x("6")("6")  = 1
 c7:  x("1")("1") + x("2")("1") + x("3")("1") + x("4")("1") + x("5")("1")
      + x("6")("1")  = 1
 c8:  x("1")("2") + x("2")("2") + x("3")("2") + x("4")("2") + x("5")("2")
      + x("6")("2")  = 1
 c9:  x("1")("3") + x("2")("3") + x("3")("3") + x("4")("3") + x("5")("3")
      + x("6")("3")  = 1
 c10: x("1")("4") + x("2")("4") + x("3")("4") + x("4")("4") + x("5")("4")
      + x("6")("4")  = 1
 c11: x("1")("5") + x("2")("5") + x("3")("5") + x("4")("5") + x("5")("5")
      + x("6")("5")  = 1
 c12: x("1")("6") + x("2")("6") + x("3")("6") + x("4")("6") + x("5")("6")
      + x("6")("6")  = 1
 c13: x("1")("1")  = 0
 c14: x("2")("2")  = 0
 c15: x("3")("3")  = 0
 c16: x("4")("4")  = 0
 c17: x("5")("5")  = 0
 c18: x("6")("6")  = 0
Bounds
 0 <= x("1")("1") <= 1
 0 <= x("1")("2") <= 1
 0 <= x("1")("3") <= 1
 0 <= x("1")("4") <= 1
 0 <= x("1")("5") <= 1
 0 <= x("1")("6") <= 1
 0 <= x("2")("1") <= 1
 0 <= x("2")("2") <= 1
 0 <= x("2")("3") <= 1
 0 <= x("2")("4") <= 1
 0 <= x("2")("5") <= 1
 0 <= x("2")("6") <= 1
 0 <= x("3")("1") <= 1
 0 <= x("3")("2") <= 1
 0 <= x("3")("3") <= 1
 0 <= x("3")("4") <= 1
 0 <= x("3")("5") <= 1
 0 <= x("3")("6") <= 1
 0 <= x("4")("1") <= 1
 0 <= x("4")("2") <= 1
 0 <= x("4")("3") <= 1
 0 <= x("4")("4") <= 1
 0 <= x("4")("5") <= 1
 0 <= x("4")("6") <= 1
 0 <= x("5")("1") <= 1
 0 <= x("5")("2") <= 1
 0 <= x("5")("3") <= 1
 0 <= x("5")("4") <= 1
 0 <= x("5")("5") <= 1
 0 <= x("5")("6") <= 1
 0 <= x("6")("1") <= 1
 0 <= x("6")("2") <= 1
 0 <= x("6")("3") <= 1
 0 <= x("6")("4") <= 1
 0 <= x("6")("5") <= 1
 0 <= x("6")("6") <= 1
Binaries
 x("1")("1")  x("1")("2")  x("1")("3")  x("1")("4")  x("1")("5")  x("1")("6") 
 x("2")("1")  x("2")("2")  x("2")("3")  x("2")("4")  x("2")("5")  x("2")("6") 
 x("3")("1")  x("3")("2")  x("3")("3")  x("3")("4")  x("3")("5")  x("3")("6") 
 x("4")("1")  x("4")("2")  x("4")("3")  x("4")("4")  x("4")("5")  x("4")("6") 
 x("5")("1")  x("5")("2")  x("5")("3")  x("5")("4")  x("5")("5")  x("5")("6") 
 x("6")("1")  x("6")("2")  x("6")("3")  x("6")("4")  x("6")("5")  x("6")("6") 
End
